Route #1: 1 39 10 11 10 35 31 10 1 
Route #2: 1 23 32 23 29 23 2 1 
Route #3: 1 6 10 22 10 17 3 12 1 
Route #4: 1 5 43 20 42 5 19 1 
Route #5: 1 8 44 8 24 25 15 26 15 1 
Route #6: 1 33 3 30 21 36 4 23 1 
Route #7: 1 5 18 16 34 16 38 13 1 
Route #8: 1 7 8 27 8 9 23 28 1 
Cost 736.0
